p cnf 7230 16
-1938 2649 0
2656 2657 0
1946 -2657 0
-1946 -2656 0
2654 2655 0
1944 -2655 0
-1944 -2654 0
2652 2653 0
1942 -2653 0
-1942 -2652 0
2650 2651 0
1940 -2651 0
-1940 -2650 0
1948 -2659 0
-2648 -2649 0
2648 2649 0
